%mem=10GB
%chk=gau.chk
%nprocshared=6
#P  opt b3lyp/3-21G
 
force
 
0 1
H                 0.0000000000        0.0000000000       -0.0163662686
H                 0.0000000000        0.0000000000        0.7605362686


